(set-info :origin "driver benchmark extracted from Microsoft SDV")
(set-logic HORN)
(declare-fun Proc12 (Int Int Int Int Bool Int Int Int Int) Bool)
(declare-fun Proc22 (Int Int Int Int Bool Int Int) Bool)
(declare-fun Proc25 (Int Int Int Int Bool Int Int Int Int Bool Int) Bool)
(declare-fun Proc3 (Int Int Int Int Bool Int Int Int Int Int) Bool)
(declare-fun Proc4 (Int Int Int Int Bool Int Int Int Int Int Int Int Int) Bool)
(declare-fun Proc8 (Int Int Int Int Bool) Bool)
(declare-fun Proc15 (Int Int Int Int Bool Int Int) Bool)
(declare-fun Proc18 (Int Int Int Int Bool Int Int Int Int Int Int) Bool)
(declare-fun Proc31 (Int Int Int Int Bool Int Bool Int Int Int Int) Bool)
(declare-fun Proc1 (Int Int Int Int Bool Int) Bool)
(declare-fun Proc13 (Int Int Int Int Bool Int) Bool)
(declare-fun Proc9 (Int Int Int Int Bool Int Int) Bool)
(declare-fun Proc26 (Int Int Int Int Bool Int Int) Bool)
(declare-fun Proc29 (Int Int Int Int Bool Int Int Int Int Int Int) Bool)
(declare-fun Proc2 (Int Int Int Int Bool Int Int Int Int) Bool)
(declare-fun Proc24 (Int Int Int Int Bool Int Int Int) Bool)
(declare-fun Proc27 (Int Int Int Int Bool) Bool)
(declare-fun Proc0 (Int Int Int Int Bool Int Int Int Int) Bool)
(declare-fun Proc17 (Int Int Int Int Bool Int) Bool)
(declare-fun Proc21 (Int Int Int Int Bool Int) Bool)
(declare-fun Proc14 (Int Int Int Int Bool Int Int) Bool)
(declare-fun Proc30 (Int Int Int Int Bool) Bool)
(declare-fun Proc16 (Int Int Int Int Bool Int Int Int Int) Bool)
(declare-fun Proc20 (Int Int Int Int Bool) Bool)
(declare-fun Proc10 (Int Int Int Int Bool Int Int Int) Bool)
(declare-fun Proc19 (Int Int Int Int Bool) Bool)
(declare-fun Proc11 (Int Int Int Int Bool Int Int) Bool)
(declare-fun Proc7 (Int Int Int Int Bool Int Int Int) Bool)
(declare-fun Proc28 (Int Int Int Int Bool) Bool)
(declare-fun Proc5 (Int Int Int Int Bool Int) Bool)
(declare-fun Proc6 (Int Int Int Int Bool Int Int Int Int Int Int Int Int) Bool)
(declare-fun Proc23 (Int Int Int Int Bool Int) Bool)
(assert (forall ((A Int)
         (B Int)
         (C Int)
         (D Int)
         (E Int)
         (F Int)
         (G Int)
         (H Int)
         (I Int)
         (J Int)
         (K Int)
         (L Int)
         (M Int)
         (N Int)
         (O Int)
         (P Int)
         (Q Int)
         (R Int)
         (S Int)
         (T Int)
         (U Int)
         (V Int)
         (W Int)
         (X Int)
         (Y Int)
         (Z Int)
         (A1 Int)
         (B1 Bool))
  (let ((a!1 (and (not (<= Y (+ 1 A1))) (not (<= Y Z))))
        (a!2 (and (not (<= W (+ 1 X))) (not (<= W Y))))
        (a!3 (and (not (<= U (+ 1 V))) (not (<= U W))))
        (a!4 (and (not (<= S (+ 1 T))) (not (<= S U))))
        (a!5 (and (not (<= Q (+ 1 R))) (not (<= Q S))))
        (a!6 (and (not (<= O (+ 1 P))) (not (<= O Q)))))
  (let ((a!7 (or (not B1)
                 (not (= A1 Z))
                 (not a!1)
                 (not (= X Y))
                 (not a!2)
                 (not (= V W))
                 (not a!3)
                 (not (= T U))
                 (not a!4)
                 (not (= R S))
                 (not a!5)
                 (not (= P Q))
                 (not a!6)
                 (= N 0)
                 (= M 0)
                 (= L 0)
                 (= K 0)
                 (= J 0)
                 (= I 0)
                 (= H 0)
                 (= G 0)
                 (not (and (= F 0) (= E O))))))
    (=> (not a!7) (Proc0 Z D C B B1 N A F E))))))
(assert (forall ((A Int) (B Int) (C Int) (D Int) (E Int) (B1 Bool))
  (=> (not (or (not B1) (= E 0))) (Proc1 D C B A B1 E))))
(assert (forall ((A Int)
         (B Int)
         (C Int)
         (D Int)
         (E Int)
         (F Int)
         (G Int)
         (H Int)
         (I Int)
         (J Int)
         (K Int)
         (L Int)
         (M Int)
         (N Int)
         (O Int)
         (B1 Bool))
  (let ((a!1 (and (not (<= M (+ 1 O))) (not (<= M N))))
        (a!2 (not (and (= D F) (= C H) (= B G)))))
  (let ((a!3 (or (not (and (= G 1) (= F E))) a!2))
        (a!4 (and (or (= I K) (not (= F 0)) a!2)
                  (or (not (= I K)) (not (= F I)) a!2))))
  (let ((a!5 (or (not B1)
                 (not (= O N))
                 (not a!1)
                 (not (Proc2 M L K J B1 O I H G))
                 (and a!3 (or (= G 1) a!4)))))
    (=> (not a!5) (Proc3 N L K J B1 A I D C B)))))))
(assert (forall ((A Int)
         (B Int)
         (C Int)
         (D Int)
         (E Int)
         (F Int)
         (G Int)
         (H Int)
         (I Int)
         (J Int)
         (K Int)
         (L Int)
         (M Int)
         (N Int)
         (O Int)
         (P Int)
         (Q Int)
         (B1 Bool))
  (let ((a!1 (not (and (= N (- 1073741823)) (= P N))))
        (a!2 (not (and (= M (- 1073741670)) (= P M))))
        (a!3 (not (and (= L (- 1073741771)) (= P L))))
        (a!4 (not (and (= K (- 1073741824)) (= P K)))))
  (let ((a!5 (and (or (= Q 0) (not (= P 0)) (not (= O P)))
                  (or (= Q 0) a!1 (not (= O P)))
                  (or (= Q 0) a!2 (not (= O P)))
                  (or (= Q 0) a!3 (not (= O P)))
                  (or (= Q 0) a!4 (not (= O P))))))
    (=> (not (or (not B1) a!5)) (Proc4 J I H G B1 F E D C B A Q O))))))
(assert (forall ((A Int) (B Int) (C Int) (D Int) (E Int) (B1 Bool))
  (=> B1 (Proc5 E D C B B1 A))))
(assert (forall ((A Int)
         (B Int)
         (C Int)
         (D Int)
         (E Int)
         (F Int)
         (G Int)
         (H Int)
         (I Int)
         (J Int)
         (K Int)
         (L Int)
         (M Int)
         (N Int)
         (B1 Bool))
  (let ((a!1 (not (and (= N (- 1073741823)) (= M N)))))
  (let ((a!2 (and (or a!1 (not (= L M))) (or (not (= M 0)) (not (= L M))))))
    (=> (not (or (not B1) a!2)) (Proc6 K J I H B1 G F E D C B A L))))))
(assert (forall ((A Int)
         (B Int)
         (C Int)
         (D Int)
         (E Int)
         (F Int)
         (G Int)
         (H Int)
         (I Int)
         (J Int)
         (K Int)
         (B1 Bool))
  (let ((a!1 (or (not (and (= K J) (= I 0))) (not (and (= H I) (= G K)))))
        (a!2 (and (not (<= E (+ 1 F))) (not (<= E J)))))
  (let ((a!3 (or (not (= F J))
                 (not a!2)
                 (not (and (= K E) (= I F)))
                 (not (and (= H I) (= G K))))))
    (=> (not (or (not B1) (and a!1 a!3))) (Proc7 J D C B B1 A H G))))))
(assert (forall ((A Int)
         (B Int)
         (C Int)
         (D Int)
         (E Int)
         (F Int)
         (G Int)
         (H Int)
         (I Int)
         (J Int)
         (K Int)
         (L Int)
         (M Int)
         (N Int)
         (O Int)
         (P Int)
         (Q Int)
         (R Int)
         (S Int)
         (T Int)
         (U Int)
         (V Int)
         (B1 Bool))
  (let ((a!1 (and (= V U) (not (<= T (+ 12 V)))))
        (a!2 (and (not (<= T U)) (= S T) (not (<= R (+ 16 S))) (not (<= R T))))
        (a!3 (and (not (<= M (+ 1 N))) (not (<= M R))))
        (a!4 (and (not (<= I (+ 1 J))) (not (<= I K))))
        (a!5 (not (and (= E (- 1073741823)) (= D E))))
        (a!7 (or (not (= D 0)) (not (and (= C D) (= B G)))))
        (a!8 (not (and (= A (- 1073741637)) (= D A)))))
  (let ((a!6 (or a!5 (not (and (= C D) (= B G)))))
        (a!9 (or (not (= H 0)) a!8 (not (and (= C D) (= B G)))))
        (a!11 (or (not (= L 0)) a!8 (not (and (= C D) (= B G))))))
  (let ((a!10 (or (= L 0) (and (or (= H 0) (= F 0) (and a!6 a!7)) a!9))))
  (let ((a!12 (not (or (not B1)
                       (not a!1)
                       (not a!2)
                       (not (Proc8 R Q P O B1))
                       (not (= N R))
                       (not a!3)
                       (not (Proc9 M Q P O B1 V N))
                       (not (Proc7 M Q P O B1 V L K))
                       (not (= J K))
                       (not a!4)
                       (not (Proc9 I Q P O B1 V J))
                       (not (Proc7 I Q P O B1 V H G))
                       (and a!10 a!11)))))
    (=> a!12 (Proc10 U Q P O B1 F C B))))))))
(assert (forall ((A Int) (B Int) (C Int) (D Int) (E Int) (F Int) (B1 Bool))
  (let ((a!1 (and (= E 0) (or (not (= E 0)) (= F 0)))))
  (let ((a!2 (and (or (= F 0) a!1) (or (not (= F 0)) a!1))))
    (=> (not (or (not B1) a!2)) (Proc9 D C B A B1 F E))))))
(assert (forall ((A Int)
         (B Int)
         (C Int)
         (D Int)
         (E Int)
         (F Int)
         (G Int)
         (H Int)
         (I Int)
         (J Int)
         (K Int)
         (B1 Bool))
  (let ((a!1 (and (not (<= I (+ 1 K))) (not (<= I J)))))
  (let ((a!2 (or (not B1)
                 (not (= K J))
                 (not a!1)
                 (not (Proc11 I H G F B1 K E))
                 (not (and (= D I) (= C E))))))
    (=> (not a!2) (Proc12 J H G F B1 B A D C))))))
(assert (forall ((A Int) (B Int) (C Int) (D Int) (E Int) (F Int) (B1 Bool))
  (let ((a!1 (not (or (not B1) (not (= F 1))))))
    (=> a!1 (Proc11 E D C B B1 A F)))))
(assert (forall ((A Int) (B Int) (C Int) (D Int) (E Int) (B1 Bool))
  (=> false (Proc13 E D C B B1 A))))
(assert (forall ((A Int)
         (B Int)
         (C Int)
         (D Int)
         (E Int)
         (F Int)
         (G Int)
         (H Int)
         (I Int)
         (J Int)
         (K Int)
         (L Int)
         (B1 Bool))
  (let ((a!1 (or (= L 0)
                 (not (and (= K J) (= I H)))
                 (not (and (= G K) (= F I)))))
        (a!2 (or (not (= E D))
                 (not (and (= K J) (= I H)))
                 (not (and (= G K) (= F I)))))
        (a!3 (or (not (= A 1))
                 (not (and (= K B) (= I A)))
                 (not (and (= G K) (= F I)))))
        (a!4 (or (= A 1)
                 (not (and (= K B) (= I A)))
                 (not (and (= G K) (= F I))))))
  (let ((a!5 (and a!2
                  (or (= E D) (not (Proc12 J L D H B1 C E B A)) (and a!3 a!4)))))
  (let ((a!6 (and a!1 (or (not (= L 0)) a!5))))
    (=> (not (or (not B1) a!6)) (Proc2 J L D H B1 C E G F)))))))
(assert (forall ((A Int) (B Int) (C Int) (D Int) (E Int) (F Int) (B1 Bool))
  (let ((a!1 (not (or (not B1) (not (= F 0))))))
    (=> a!1 (Proc14 E D C B B1 A F)))))
(assert (forall ((A Int)
         (B Int)
         (C Int)
         (D Int)
         (E Int)
         (F Int)
         (G Int)
         (H Int)
         (B1 Bool))
  (let ((a!1 (and (not (<= F (+ 1 H))) (not (<= F G)))))
  (let ((a!2 (not (or (not B1)
                      (not (= H G))
                      (not a!1)
                      (not (Proc13 F E D C B1 H))
                      (not (= B F))))))
    (=> a!2 (Proc15 G E D C B1 A B))))))
(assert (forall ((A Int)
         (B Int)
         (C Int)
         (D Int)
         (E Int)
         (F Int)
         (G Int)
         (H Int)
         (I Int)
         (J Int)
         (K Int)
         (L Int)
         (M Int)
         (N Int)
         (O Int)
         (P Int)
         (Q Int)
         (R Int)
         (S Int)
         (T Int)
         (U Int)
         (V Int)
         (W Int)
         (X Int)
         (Y Int)
         (Z Int)
         (A1 Int)
         (B1 Bool)
         (C1 Int)
         (D1 Int)
         (E1 Int)
         (F1 Int)
         (G1 Int)
         (H1 Int)
         (I1 Int)
         (J1 Int)
         (K1 Int)
         (L1 Int)
         (M1 Int)
         (N1 Int)
         (O1 Int)
         (P1 Int)
         (Q1 Int))
  (let ((a!1 (and (not (<= O1 (+ 4 Q1))) (not (<= O1 P1))))
        (a!2 (and (not (<= M1 (+ 1 N1))) (not (<= M1 O1))))
        (a!3 (and (not (<= A1 (+ 1 C1))) (not (<= A1 E1))))
        (a!4 (not (and (Proc15 A1 I1 K1 D1 B1 C1 Z) (= Y D1) (= X Z) (= W F1))))
        (a!5 (not (and (= V W) (= U X) (= T I1) (= S Y))))
        (a!8 (not (and (not (= M 0))
                       (= K (+ 16 M))
                       (= J (- 833663660))
                       (Proc16 O I1 K1 N B1 K J 1 5))))
        (a!9 (not (and (not (= M 0)) (= I (+ 144 M)) (Proc1 O I1 K1 N B1 I))))
        (a!10 (not (and (not (= M 0)) (= H (+ 152 M)) (Proc17 O I1 K1 N B1 H))))
        (a!11 (not (and (not (= M 0))
                        (= G (+ 140 M))
                        (Proc6 O I1 K1 N B1 2 1 F H1 179 M G E))))
        (a!13 (not (and (= A (- 1073741130)) (= F1 A) (= E1 O) (= D1 N)))))
  (let ((a!6 (or (<= 0 G1)
                 (not (= F1 G1))
                 (not (and (= E1 M1) (= D1 J1)))
                 (not (= C1 E1))
                 (not a!3)
                 a!4
                 a!5))
        (a!7 (or (not (and (= N 1) (= Y N) (= X O) (= W L))) a!5))
        (a!12 (or (= M 0)
                  a!8
                  a!9
                  a!10
                  a!11
                  (not (Proc10 O I1 K1 N B1 M D C))
                  (not (= F1 0))
                  (not (and (= E1 C) (= D1 N)))
                  (not (= C1 E1))
                  (not a!3)
                  a!4
                  a!5)))
  (let ((a!14 (and a!12
                   (or (not (Proc5 O I1 K1 N B1 B))
                       a!13
                       (not (= C1 E1))
                       (not a!3)
                       a!4
                       a!5))))
  (let ((a!15 (or (not (<= 0 G1))
                  (not (Proc3 M1 I1 K1 J1 B1 R Q P O N))
                  (= M 0)
                  (and a!7 (or (= N 1) (= M 0) a!14)))))
  (let ((a!16 (not (or (not B1)
                       (not (= Q1 P1))
                       (not a!1)
                       (not (= N1 O1))
                       (not a!2)
                       (not (Proc14 M1 L1 K1 J1 B1 N1 I1))
                       (not (Proc8 M1 I1 K1 J1 B1))
                       (not (Proc4 M1 I1 K1 J1 B1 H1 88 0 34 256 0 Q1 G1))
                       (and a!6 a!15)))))
    (=> a!16 (Proc18 P1 L1 K1 J1 B1 H1 Q V U T S)))))))))
(assert (forall ((A Int) (B Int) (C Int) (D Int) (B1 Bool)) (=> B1 (Proc19 D C B A B1))))
(assert (forall ((A Int) (B Int) (C Int) (D Int) (B1 Bool)) (=> B1 (Proc20 D C B A B1))))
(assert (forall ((A Int) (B Int) (C Int) (D Int) (E Int) (F Int) (B1 Bool))
  (let ((a!1 (not (or (not B1) (not (= F E))))))
    (=> a!1 (Proc21 D C B A B1 F)))))
(assert (forall ((A Int) (B Int) (C Int) (D Int) (E Int) (F Int) (B1 Bool))
  (let ((a!1 (or (not B1) (not (and (= F 1) (= E 0))))))
    (=> (not a!1) (Proc22 D C B A B1 F E)))))
(assert (forall ((A Int)
         (B Int)
         (C Int)
         (D Int)
         (E Int)
         (F Int)
         (G Int)
         (H Int)
         (I Int)
         (J Int)
         (K Int)
         (L Int)
         (M Int)
         (N Int)
         (O Int)
         (P Int)
         (Q Int)
         (R Int)
         (S Int)
         (B1 Bool)
         (R1 Bool)
         (S1 Bool)
         (T1 Bool))
  (let ((a!1 (not (and (not (<= S 0)) (Proc23 S R Q P T1 O))))
        (a!2 (not (and (= F H) (= E J) (= D I) (= C L) (= R1 S1) (= B K)))))
  (let ((a!3 (or (= I 0) (not (and (= H G) (not S1))) a!2))
        (a!4 (or (not (and (= I 0) (= B1 T1)))
                 (not (and (= H A) (= S1 B1)))
                 a!2)))
  (let ((a!5 (and (or (= I 1) (and a!3 a!4)) (or (not (= I 1)) (and a!3 a!4)))))
  (let ((a!6 (not (or (not T1)
                      a!1
                      (not (Proc22 O R Q P T1 N M))
                      (not (Proc21 O N Q M T1 L))
                      (not (Proc20 O N L M T1))
                      (not (Proc19 O N L M T1))
                      (not (Proc24 O N L M T1 K J I))
                      a!5))))
    (=> a!6 (Proc25 S R Q P T1 F E D C R1 B))))))))
(assert (forall ((A Int) (B Int) (C Int) (D Int) (E Int) (B1 Bool))
  (=> B1 (Proc17 E D C B B1 A))))
(assert (forall ((A Int)
         (B Int)
         (C Int)
         (D Int)
         (E Int)
         (F Int)
         (G Int)
         (H Int)
         (B1 Bool))
  (=> B1 (Proc16 H G F E B1 D C B A))))
(assert (forall ((A Int) (B Int) (C Int) (D Int) (E Int) (F Int) (G Int) (B1 Bool))
  (let ((a!1 (not (or (not B1) (not (= G F))))))
    (=> a!1 (Proc26 E D C B B1 A G)))))
(assert (forall ((A Int)
         (B Int)
         (C Int)
         (D Int)
         (E Int)
         (F Int)
         (G Int)
         (H Int)
         (I Int)
         (J Int)
         (K Int)
         (L Int)
         (M Int)
         (N Int)
         (O Int)
         (P Int)
         (B1 Bool))
  (let ((a!1 (not (and (= D F) (= C I) (= B H) (= A G)))))
  (let ((a!2 (or (not (and (= G 1) (= F E))) a!1)))
  (let ((a!3 (and a!2 (or (= G 1) (not (Proc28 I H N G B1)) (not (= F J)) a!1))))
  (let ((a!4 (not (or (not B1)
                      (not (Proc27 P O N M B1))
                      (not (Proc18 P O N M B1 L K J I H G))
                      a!3))))
    (=> a!4 (Proc29 P O N M B1 L K D C B A))))))))
(assert (forall ((A Int) (B Int) (C Int) (D Int) (B1 Bool)) (=> B1 (Proc8 D C B A B1))))
(assert (forall ((A Int)
         (B Int)
         (C Int)
         (D Int)
         (E Int)
         (F Int)
         (G Int)
         (H Int)
         (I Int)
         (J Int)
         (K Int)
         (L Int)
         (M Int)
         (N Int)
         (O Int)
         (P Int)
         (Q Int)
         (R Int)
         (S Int)
         (B1 Bool))
  (let ((a!1 (and (not (<= Q (+ 12 S))) (not (<= Q R))))
        (a!2 (not (and (= D G) (= C F) (= B E)))))
  (let ((a!3 (and (or (not (= E 1)) a!2)
                  (or (= E 1)
                      (not (<= 0 H))
                      (not (= A 1))
                      (= A 0)
                      (not (Proc30 G F O E B1))
                      a!2))))
  (let ((a!4 (not (or (not B1)
                      (not (= S R))
                      (not a!1)
                      (not (Proc0 Q P O N B1 M S L K))
                      (not (<= 0 L))
                      (not (= J 1))
                      (= J 0)
                      (not (Proc29 K P O N B1 I O H G F E))
                      a!3))))
    (=> a!4 (Proc24 R P O N B1 D C B)))))))
(assert (forall ((A Int) (B Int) (C Int) (D Int) (B1 Bool)) (=> B1 (Proc27 D C B A B1))))
(assert (forall ((A Int) (B Int) (C Int) (D Int) (B1 Bool)) (=> B1 (Proc28 D C B A B1))))
(assert (forall ((A Int) (B Int) (C Int) (D Int) (B1 Bool)) (=> B1 (Proc30 D C B A B1))))
(assert (forall ((A Int)
         (B Int)
         (C Int)
         (D Int)
         (E Int)
         (F Int)
         (G Int)
         (H Int)
         (I Int)
         (J Int)
         (K Int)
         (L Int)
         (M Int)
         (N Int)
         (O Int)
         (P Int)
         (Q Int)
         (R Int)
         (S Int)
         (T Int)
         (U Int)
         (V Int)
         (W Int)
         (X Int)
         (Y Int)
         (Z Int)
         (A1 Int)
         (B1 Bool)
         (C1 Int)
         (D1 Int)
         (E1 Int)
         (F1 Int)
         (G1 Int)
         (H1 Int)
         (I1 Int)
         (J1 Int)
         (K1 Int)
         (L1 Int)
         (M1 Int)
         (N1 Int)
         (O1 Int)
         (P1 Int)
         (Q1 Int)
         (U1 Int)
         (V1 Int)
         (W1 Int)
         (X1 Int)
         (Y1 Int)
         (Z1 Int)
         (A2 Int)
         (B2 Int)
         (C2 Int)
         (D2 Int)
         (E2 Int)
         (F2 Int)
         (G2 Int)
         (H2 Int)
         (I2 Int)
         (J2 Int)
         (K2 Int)
         (L2 Int)
         (M2 Int)
         (N2 Int)
         (O2 Int)
         (P2 Int)
         (Q2 Int)
         (R2 Int)
         (S2 Int)
         (T2 Int)
         (U2 Int)
         (V2 Int)
         (W2 Int)
         (X2 Int)
         (Y2 Int)
         (Z2 Int)
         (A3 Int)
         (B3 Int)
         (C3 Int)
         (D3 Int)
         (E3 Int)
         (F3 Int)
         (G3 Int)
         (H3 Int)
         (I3 Int)
         (J3 Int)
         (K3 Int)
         (L3 Int)
         (M3 Int)
         (N3 Int)
         (O3 Int)
         (P3 Int)
         (Q3 Int)
         (R3 Int)
         (S3 Int)
         (T3 Int)
         (U3 Int)
         (V3 Int)
         (W3 Int)
         (X3 Int)
         (Y3 Int)
         (Z3 Int)
         (A4 Int)
         (B4 Int)
         (C4 Int)
         (D4 Int)
         (E4 Int)
         (F4 Int)
         (G4 Int)
         (H4 Int)
         (I4 Int)
         (J4 Int)
         (K4 Int)
         (L4 Int)
         (M4 Int)
         (N4 Int)
         (O4 Int)
         (P4 Int)
         (Q4 Int)
         (R4 Int)
         (S4 Int)
         (T4 Int)
         (U4 Int)
         (V4 Int)
         (W4 Int)
         (X4 Int)
         (Y4 Int)
         (Z4 Int)
         (A5 Int)
         (B5 Int)
         (C5 Int)
         (D5 Int)
         (E5 Int)
         (F5 Int)
         (G5 Int)
         (H5 Int)
         (I5 Int)
         (J5 Int)
         (K5 Int)
         (L5 Int)
         (M5 Int)
         (N5 Int)
         (O5 Int)
         (P5 Int)
         (Q5 Int)
         (R5 Int)
         (S5 Int)
         (T5 Int)
         (U5 Int)
         (V5 Int)
         (W5 Int)
         (X5 Int)
         (Y5 Int)
         (Z5 Int)
         (A6 Int)
         (B6 Int)
         (C6 Int)
         (D6 Int)
         (E6 Int)
         (F6 Int)
         (G6 Int)
         (H6 Int)
         (I6 Int)
         (J6 Int)
         (K6 Int)
         (L6 Int)
         (M6 Int)
         (N6 Int)
         (O6 Int)
         (P6 Int)
         (Q6 Int)
         (R6 Int)
         (S6 Int)
         (T6 Int)
         (U6 Int)
         (V6 Int)
         (W6 Int)
         (X6 Int)
         (Y6 Int)
         (Z6 Int)
         (A7 Int)
         (B7 Int)
         (C7 Int))
  (let ((a!1 (and (= C7 B7)
                  (not (<= A7 (+ 16 C7)))
                  (not (<= A7 B7))
                  (= Z6 A7)
                  (not (<= Y6 (+ 16 Z6)))
                  (not (<= Y6 A7))
                  (= X6 Y6)
                  (not (<= W6 (+ 16 X6)))))
        (a!2 (and (not (<= W6 Y6))
                  (= V6 W6)
                  (not (<= U6 (+ 16 V6)))
                  (not (<= U6 W6))
                  (= T6 U6)
                  (not (<= S6 (+ 16 T6)))
                  (not (<= S6 U6))
                  (= R6 S6)
                  (not (<= Q6 (+ 16 R6)))
                  (not (<= Q6 S6))
                  (= P6 Q6)
                  (not (<= O6 (+ 16 P6)))
                  (not (<= O6 Q6))
                  (= N6 O6)
                  (not (<= M6 (+ 16 N6)))
                  (not (<= M6 O6))
                  (= L6 M6)
                  (not (<= K6 (+ 16 L6)))
                  (not (<= K6 M6))
                  (= J6 K6)
                  (not (<= I6 (+ 16 J6)))
                  (not (<= I6 K6))
                  (= H6 I6)
                  (not (<= G6 (+ 16 H6)))
                  (not (<= G6 I6))
                  (= F6 G6)
                  (not (<= E6 (+ 16 F6)))
                  (not (<= E6 G6))
                  (= D6 E6)
                  (not (<= C6 (+ 16 D6)))
                  (not (<= C6 E6))
                  (= B6 C6)
                  (not (<= A6 (+ 16 B6)))
                  (not (<= A6 C6))
                  (= Z5 A6)
                  (not (<= Y5 (+ 16 Z5)))
                  (not (<= Y5 A6))
                  (= X5 Y5)
                  (not (<= W5 (+ 16 X5)))
                  (not (<= W5 Y5))
                  (= V5 W5)
                  (not (<= U5 (+ 16 V5)))
                  (not (<= U5 W5))
                  (= T5 U5)
                  (not (<= S5 (+ 16 T5)))
                  (not (<= S5 U5))
                  (= R5 S5)
                  (not (<= Q5 (+ 16 R5)))
                  (not (<= Q5 S5))
                  (= P5 Q5)
                  (not (<= O5 (+ 16 P5)))
                  (not (<= O5 Q5))
                  (= N5 O5)
                  (not (<= M5 (+ 16 N5)))
                  (not (<= M5 O5))
                  (= L5 M5)
                  (not (<= K5 (+ 16 L5)))
                  (not (<= K5 M5))
                  (= J5 K5)
                  (not (<= I5 (+ 16 J5)))
                  (not (<= I5 K5))
                  (= H5 I5)
                  (not (<= G5 (+ 16 H5)))
                  (not (<= G5 I5))
                  (= F5 G5)
                  (not (<= E5 (+ 16 F5)))
                  (not (<= E5 G5))
                  (= D5 E5)
                  (not (<= C5 (+ 16 D5)))
                  (not (<= C5 E5))
                  (= B5 C5)
                  (not (<= A5 (+ 16 B5)))
                  (not (<= A5 C5))
                  (= Z4 A5)
                  (not (<= Y4 (+ 16 Z4)))
                  (not (<= Y4 A5))
                  (= X4 Y4)
                  (not (<= W4 (+ 16 X4)))
                  (not (<= W4 Y4))
                  (= V4 W4)
                  (not (<= U4 (+ 16 V4)))
                  (not (<= U4 W4))
                  (= T4 U4)
                  (not (<= S4 (+ 16 T4)))
                  (not (<= S4 U4))
                  (= R4 S4)
                  (not (<= Q4 (+ 16 R4)))
                  (not (<= Q4 S4))
                  (= P4 Q4)
                  (not (<= O4 (+ 16 P4)))
                  (not (<= O4 Q4))
                  (= N4 O4)
                  (not (<= M4 (+ 16 N4)))
                  (not (<= M4 O4))
                  (= L4 M4)
                  (not (<= K4 (+ 16 L4)))
                  (not (<= K4 M4))
                  (= J4 K4)
                  (not (<= I4 (+ 16 J4)))
                  (not (<= I4 K4))
                  (= H4 I4)
                  (not (<= G4 (+ 16 H4)))
                  (not (<= G4 I4))
                  (= F4 G4)
                  (not (<= E4 (+ 16 F4)))
                  (not (<= E4 G4))
                  (= D4 E4)
                  (not (<= C4 (+ 16 D4)))
                  (not (<= C4 E4))
                  (= B4 C4)
                  (not (<= A4 (+ 16 B4)))
                  (not (<= A4 C4))
                  (= Z3 A4)
                  (not (<= Y3 (+ 16 Z3)))
                  (not (<= Y3 A4))
                  (= X3 Y3)
                  (not (<= W3 (+ 16 X3)))
                  (not (<= W3 Y3))
                  (= V3 W3)
                  (not (<= U3 (+ 16 V3)))
                  (not (<= U3 W3))
                  (= T3 U3)
                  (not (<= S3 (+ 16 T3)))
                  (not (<= S3 U3))
                  (= R3 S3)
                  (not (<= Q3 (+ 16 R3)))
                  (not (<= Q3 S3))
                  (= P3 Q3)
                  (not (<= O3 (+ 16 P3)))
                  (not (<= O3 Q3))
                  (= N3 O3)
                  (not (<= M3 (+ 16 N3)))
                  (not (<= M3 O3))
                  (= L3 M3)
                  (not (<= K3 (+ 16 L3)))
                  (not (<= K3 M3))
                  (= J3 K3)
                  (not (<= I3 (+ 16 J3)))
                  (not (<= I3 K3))
                  (= H3 I3)
                  (not (<= G3 (+ 16 H3)))
                  (not (<= G3 I3))
                  (= F3 G3)
                  (not (<= E3 (+ 16 F3)))
                  (not (<= E3 G3))
                  (= D3 E3)
                  (not (<= C3 (+ 16 D3)))
                  (not (<= C3 E3))
                  (= B3 C3)
                  (not (<= A3 (+ 16 B3)))
                  (not (<= A3 C3))
                  (= Z2 A3)
                  (not (<= Y2 (+ 16 Z2)))
                  (not (<= Y2 A3))
                  (= X2 Y2)
                  (not (<= W2 (+ 16 X2)))
                  (not (<= W2 Y2))
                  (= V2 W2)
                  (not (<= U2 (+ 16 V2)))
                  (not (<= U2 W2))
                  (= T2 U2)
                  (not (<= S2 (+ 16 T2)))
                  (not (<= S2 U2))
                  (= R2 S2)
                  (not (<= Q2 (+ 16 R2)))
                  (not (<= Q2 S2))
                  (= P2 Q2)
                  (not (<= O2 (+ 16 P2)))
                  (not (<= O2 Q2))
                  (= N2 O2)
                  (not (<= M2 (+ 16 N2)))
                  (not (<= M2 O2))
                  (= L2 M2)
                  (not (<= K2 (+ 16 L2)))
                  (not (<= K2 M2))
                  (= J2 K2)
                  (not (<= I2 (+ 16 J2)))
                  (not (<= I2 K2))
                  (= H2 I2)
                  (not (<= G2 (+ 16 H2)))
                  (not (<= G2 I2))
                  (= F2 G2)
                  (not (<= E2 (+ 16 F2)))
                  (not (<= E2 G2))
                  (= D2 E2)
                  (not (<= C2 (+ 4 D2)))
                  (not (<= C2 E2))
                  (= B2 C2)
                  (not (<= A2 (+ 332 B2)))
                  (not (<= A2 C2))
                  (= Z1 A2)
                  (not (<= Y1 (+ 4 Z1)))
                  (not (<= Y1 A2))
                  (= X1 Y1)
                  (not (<= W1 (+ 536 X1)))
                  (not (<= W1 Y1))
                  (= V1 W1)
                  (not (<= U1 (+ 240 V1)))
                  (not (<= U1 W1))
                  (= Q1 U1)
                  (not (<= P1 (+ 240 Q1)))
                  (not (<= P1 U1))
                  (= O1 P1)
                  (not (<= N1 (+ 240 O1)))
                  (not (<= N1 P1))
                  (= M1 N1)
                  (not (<= L1 (+ 4 M1)))
                  (not (<= L1 N1))
                  (= K1 L1)
                  (not (<= J1 (+ 536 K1)))
                  (not (<= J1 L1))
                  (= I1 J1)
                  (not (<= H1 (+ 332 I1)))
                  (not (<= H1 J1))
                  (= G1 H1)
                  (not (<= F1 (+ 240 G1)))
                  (not (<= F1 H1))
                  (= E1 F1)
                  (not (<= D1 (+ 240 E1)))
                  (not (<= D1 F1))
                  (= C1 D1)
                  (not (<= A1 (+ 332 C1)))
                  (not (<= A1 D1))
                  (= Z A1)
                  (not (<= Y (+ 4 Z)))
                  (not (<= Y A1))
                  (= X Y)
                  (not (<= W (+ 68 X)))
                  (not (<= W Y))
                  (= V W)
                  (not (<= U (+ 240 V)))
                  (not (<= U W))
                  (= T U)
                  (not (<= S (+ 240 T)))
                  (not (<= S U))
                  (= R S)
                  (not (<= Q (+ 240 R)))
                  (not (<= Q S))
                  (= P Q)
                  (not (<= O (+ 240 P)))
                  (not (<= O Q))
                  (= N O)
                  (not (<= M (+ 240 N)))
                  (not (<= M O))
                  (= L M)
                  (not (<= K (+ 40 L)))
                  (not (<= K M))
                  (= J K)
                  (not (<= I (+ 332 J)))
                  (not (<= I K))
                  (= H I)
                  (not (<= G (+ 4 H)))
                  (not (<= G I))
                  (= F G)
                  (not (<= E (+ 40 F)))
                  (not (<= E G)))))
  (let ((a!3 (not (or (not B1) (not a!1) (not a!2) (not (= D E))))))
    (=> a!3 (Proc23 B7 C B A B1 D))))))
(assert (forall ((A Int)
         (B Int)
         (C Int)
         (D Int)
         (E Int)
         (F Int)
         (G Int)
         (H Int)
         (I Int)
         (J Int)
         (K Int)
         (L Int)
         (M Int)
         (N Int)
         (B1 Bool)
         (R1 Bool)
         (S1 Bool))
  (let ((a!1 (or (not S1)
                 (not (and (Proc25 N M L K true J I H G R1 F) (not R1))))))
    (=> (not a!1) (Proc31 N M L K S1 E B1 D C B A)))))
(assert (let ((a!1 (exists ((V0 Int)
                    (V1 Int)
                    (V2 Int)
                    (V3 Int)
                    (V4 Bool)
                    (V5 Int)
                    (V6 Bool)
                    (V7 Int)
                    (V8 Int)
                    (V9 Int)
                    (V10 Int))
             (not (=> (and (Proc31 V0 V1 V2 V3 V4 V5 V6 V7 V8 V9 V10)
                           (not false))
                      false)))))
  (not a!1)))

(check-sat)
